c File: instances/14_0.50_2.col
c
c Description: Random graph of size 14 vertices and P(0.49999999999999994) of edges between any two vertices.
p col 14 91
e 1 8
e 1 9
e 1 11
e 1 12
e 1 13
e 2 4
e 2 5
e 2 6
e 2 8
e 2 9
e 2 11
e 2 12
e 2 13
e 2 14
e 3 5
e 3 6
e 3 8
e 3 9
e 4 5
e 4 6
e 4 8
e 4 9
e 4 10
e 5 13
e 6 10
e 6 11
e 6 12
e 6 13
e 6 14
e 7 8
e 7 10
e 7 12
e 7 14
e 8 9
e 8 10
e 8 14
e 9 10
e 9 11
e 10 12
e 10 13
e 10 14
e 11 12
e 11 13
e 12 14
e 13 14